Data path: /scratch/opt/lxu/CFLG/benchmarks/random_B
Instance: r_30_0.4_188.txt
Result path: /scratch/opt/lxu/CFLG/results/random_B
Solver: Gurobi
Time limit: 3600
Formulation: LEFPI
Cover: Large
julia --project=. src/main.jl /scratch/opt/lxu/CFLG/benchmarks/random_B r_30_0.4_188.txt /scratch/opt/lxu/CFLG/results/random_B Gurobi 3600 LEFPI Large
The latest version of Julia in the `release` channel is 1.11.5+0.x64.linux.gnu. You currently have `1.11.4+0.x64.linux.gnu` installed. Run:

  juliaup update

in your terminal shell to install Julia 1.11.5+0.x64.linux.gnu and update the `release` channel to that version.
/scratch/opt/lxu/CFLG/benchmarks/random_B Gurobi 3600.0 /scratch/opt/lxu/CFLG/results/random_B r_30_0.4_188.txt LEFPI Large
/scratch/opt/lxu/CFLG/benchmarks/random_B/r_30_0.4_188.txt

 read graph
data loaded

problem_graph/original graph: node: 30/30 edge: 188/188 dlt: 1.2131512127745345 break_avg_len: 0.6065756063872673 break_max_len: 0.9917999550727499Set parameter TokenServer to value "solice01.zib.de"
Set parameter Threads to value 1
Set parameter OutputFlag to value 1
Gurobi Optimizer version 12.0.1 build v12.0.1rc0 (linux64 - "Debian GNU/Linux 12 (bookworm)")

CPU model: Intel(R) Xeon(R) Gold 5122 CPU @ 3.60GHz, instruction set [SSE2|AVX|AVX2|AVX512]
Thread count: 8 physical cores, 16 logical processors, using up to 1 threads

Non-default parameters:
Threads  1

Optimize a model with 218 rows, 564 columns and 940 nonzeros
Model fingerprint: 0xc0aa8d49
Coefficient statistics:
  Matrix range     [1e+00, 1e+00]
  Objective range  [1e+00, 1e+00]
  Bounds range     [1e+00, 1e+00]
  RHS range        [0e+00, 0e+00]
Presolve removed 218 rows and 564 columns
Presolve time: 0.00s
Presolve: All rows and columns removed
Iteration    Objective       Primal Inf.    Dual Inf.      Time
       0   -0.0000000e+00   0.000000e+00   0.000000e+00      0s

Solved in 0 iterations and 0.00 seconds (0.00 work units)
Optimal objective -0.000000000e+00

User-callback calls 35, time in user-callback 0.00 sec
elapsed CPU time: 1.284062 seconds
Set parameter TokenServer to value "solice01.zib.de"
Set parameter Threads to value 1
Set parameter OutputFlag to value 1
Set parameter MIPGap to value 0.0001
Set parameter MIPGapAbs to value 1
Set parameter TimeLimit to value 3598.715938

 more cuts:falsefalse
0 0
formulation:LEFPI0 188 30

 model loaded

Gurobi Optimizer version 12.0.1 build v12.0.1rc0 (linux64 - "Debian GNU/Linux 12 (bookworm)")

CPU model: Intel(R) Xeon(R) Gold 5122 CPU @ 3.60GHz, instruction set [SSE2|AVX|AVX2|AVX512]
Thread count: 8 physical cores, 16 logical processors, using up to 1 threads

Non-default parameters:
TimeLimit  3598.715938
MIPGapAbs  1
Threads  1

Optimize a model with 13636 rows, 11938 columns and 40600 nonzeros
Model fingerprint: 0xf42519ab
Model has 11156 simple general constraints
  11156 INDICATOR
Variable types: 406 continuous, 11532 integer (11532 binary)
Coefficient statistics:
  Matrix range     [3e-01, 1e+00]
  Objective range  [1e+00, 1e+00]
  Bounds range     [3e-01, 1e+00]
  RHS range        [3e-01, 2e+01]
  GenCon rhs range [3e-04, 1e+00]
  GenCon coe range [1e+00, 1e+00]
Presolve added 5414 rows and 0 columns
Presolve removed 0 rows and 219 columns
Presolve time: 0.45s
Presolved: 19050 rows, 11719 columns, 67942 nonzeros
Variable types: 218 continuous, 11501 integer (11501 binary)
Found heuristic solution: objective 188.0000000
Found heuristic solution: objective 44.0000000
Found heuristic solution: objective 43.0000000

Root relaxation: objective 4.763085e-01, 6902 iterations, 0.41 seconds (0.71 work units)

    Nodes    |    Current Node    |     Objective Bounds      |     Work
 Expl Unexpl |  Obj  Depth IntInf | Incumbent    BestBd   Gap | It/Node Time

     0     0    0.47631    0  673   43.00000    0.47631  98.9%     -    1s
H    0     0                      19.0000000    0.47631  97.5%     -    1s
H    0     0                       5.0000000    0.47631  90.5%     -    2s
H    0     0                       3.0000000    0.47631  84.1%     -    2s
H    0     0                       2.0000000    0.47631  76.2%     -    4s
     0     0    0.63297    0  405    2.00000    0.63297  68.4%     -    5s
     0     0    0.70983    0  575    2.00000    0.70983  64.5%     -    5s
     0     0    1.00000    0  462    2.00000    1.00000  50.0%     -    7s
     0     0    1.00000    0  403    2.00000    1.00000  50.0%     -    7s
     0     0    1.00000    0  168    2.00000    1.00000  50.0%     -    8s
     0     0    1.00000    0  252    2.00000    1.00000  50.0%     -    8s
     0     0    1.00000    0   81    2.00000    1.00000  50.0%     -    9s

Cutting planes:
  Learned: 2
  Gomory: 1
  Cover: 11
  Implied bound: 2
  MIR: 60
  StrongCG: 3
  Zero half: 1
  RLT: 10
  Relax-and-lift: 10
  BQP: 32

Explored 1 nodes (48037 simplex iterations) in 9.64 seconds (11.46 work units)
Thread count was 1 (of 16 available processors)

Solution count 7: 2 3 5 ... 188

Optimal solution found (tolerance 1.00e-04)
Best objective 2.000000000000e+00, best bound 1.000000000000e+00, gap 50.0000%

User-callback calls 4027, time in user-callback 0.00 sec

 sepatime0
2.0Stat(MathOptInterface.OPTIMAL, 2.0, 1.0000000000000002, 0.4999999999999999, 0.0, 1.284062, 9.639293909072876, 1, Main.CFLG.LEFPI, "", #undef)
